25166083
3
4325380
262152
131088
131104
16793664
1048704
257
69215744
69215744
1050624
266240
606086656
16448
67141632
536936448
4325428
266248
34078720
34605184
69215744
4325380
276824065
16777281
35127296
203466240
201326592
276824064
536944640
